# 3D Poiseuille flow -- CoupLB validation
# Grid 8x32x8, dx=1.0, nu=0.1, rho=1.0, tau=0.8
# g=5e-6, u_max~6.4e-3, Ma~0.011
# Validate: python validate.py poiseuille couplb_poiseuille3d.dat 5e-6

units           lj
dimension       3
boundary        p f p
atom_style      atomic

region          box block 0.0 8.0 0.0 32.0 0.0 8.0
create_box      1 box
create_atoms    1 single 4.0 0.5 4.0
mass            1 1.0
pair_style      none

group           noatoms empty

timestep        1.0

fix  flow noatoms couplb 8 32 8 0.1 1.0 &
     wall_y 1 1 &
     gravity 5e-6 0.0 0.0 &
     output 5000 couplb_poiseuille3d.dat &
     check_every 2000

thermo          5000
thermo_style    custom step cpu
run             50000
print "=== 3D Poiseuille test done ==="